c Sudoku solution
p cnf 729 0
161 0
226 0
238 0
253 0
292 0
347 0
352 0
373 0
429 0
431 0
574 0
628 0
644 0
414 0
669 0
676 0
685 0
715 0
736 0
516 0
793 0
857 0
651 0
697 0
498 0
472 0
483 0
467 0
878 0
918 0
924 0
977 0
727 0
537 0
525 0
558 0
321 0
319 0
217 0
811 0
187 0
388 0
148 0
768 0
986 0
866 0
754 0
446 0
455 0
959 0
839 0
249 0
156 0
396 0
742 0
941 0
882 0
894 0
995 0
823 0
932 0
845 0
963 0
122 0
113 0
612 0
633 0
543 0
562 0
284 0
271 0
134 0
335 0
265 0
364 0
779 0
781 0
175 0
199 0
589 0
591 0
